NAME : X_30_seed_123_id_5
TYPE : CVRP
DIMENSION : 237
EDGE_WEIGHT_TYPE : EUC_2D
CAPACITY : 18
NODE_COORD_SECTION
1	0	0
2	980	125
3	468	106
4	808	571
5	178	820
6	226	737
7	890	887
8	130	147
9	112	372
10	277	471
11	42	432
12	156	587
13	674	470
14	973	56
15	414	631
16	949	550
17	599	295
18	882	481
19	614	79
20	192	533
21	397	482
22	781	374
23	369	186
24	450	453
25	250	44
26	246	842
27	996	218
28	988	522
29	321	59
30	203	312
31	831	599
32	762	23
33	864	657
34	359	20
35	725	978
36	577	720
37	487	114
38	54	702
39	963	73
40	298	909
41	77	921
42	778	600
43	478	158
44	926	810
45	611	505
46	344	158
47	86	681
48	653	561
49	272	325
50	260	850
51	101	938
52	331	191
53	930	782
54	311	254
55	99	469
56	204	461
57	69	778
58	413	630
59	66	264
60	910	6
61	131	31
62	779	216
63	95	462
64	413	154
65	113	775
66	282	846
67	197	176
68	634	562
69	928	212
70	372	663
71	534	999
72	973	486
73	535	573
74	296	286
75	507	362
76	2	878
77	340	787
78	923	932
79	772	655
80	986	534
81	607	605
82	517	61
83	134	718
84	701	245
85	17	296
86	301	334
87	898	946
88	6	490
89	993	94
90	0	69
91	831	29
92	578	845
93	306	772
94	628	298
95	119	278
96	951	154
97	899	836
98	203	846
99	160	729
100	710	599
101	851	104
102	763	344
103	659	976
104	90	483
105	290	47
106	840	348
107	400	117
108	902	559
109	844	209
110	551	801
111	650	205
112	15	874
113	146	520
114	284	254
115	712	250
116	385	935
117	823	760
118	774	568
119	35	724
120	790	99
121	94	411
122	894	847
123	344	163
124	264	450
125	59	182
126	265	931
127	968	893
128	128	64
129	584	538
130	670	322
131	810	722
132	288	389
133	281	365
134	625	170
135	947	241
136	535	147
137	691	307
138	169	437
139	76	959
140	81	156
141	796	552
142	181	46
143	911	579
144	309	427
145	447	750
146	821	733
147	522	512
148	884	764
149	686	603
150	71	201
151	517	486
152	859	948
153	741	782
154	747	766
155	985	38
156	51	46
157	964	578
158	551	716
159	827	314
160	572	721
161	433	796
162	23	465
163	690	592
164	871	415
165	308	355
166	837	892
167	533	911
168	356	457
169	681	795
170	234	711
171	986	356
172	361	298
173	600	218
174	273	578
175	865	652
176	670	461
177	98	370
178	113	668
179	398	285
180	780	171
181	11	213
182	261	6
183	285	159
184	997	384
185	483	90
186	486	48
187	939	267
188	312	253
189	678	965
190	830	422
191	23	631
192	771	451
193	679	643
194	464	981
195	602	456
196	152	931
197	762	297
198	573	357
199	37	988
200	185	899
201	209	142
202	218	226
203	115	458
204	35	199
205	987	56
206	229	448
207	603	772
208	908	107
209	836	401
210	672	193
211	534	514
212	80	157
213	446	734
214	968	329
215	840	157
216	979	245
217	753	877
218	756	126
219	49	453
220	933	415
221	84	665
222	19	546
223	623	715
224	739	237
225	606	386
226	455	620
227	979	82
228	581	962
229	753	350
230	349	872
231	177	375
232	456	797
233	963	721
234	187	338
235	781	997
236	833	895
237	236	74
DEMAND_SECTION
1	0
2	1
3	1
4	1
5	1
6	1
7	1
8	1
9	1
10	1
11	1
12	1
13	1
14	1
15	1
16	1
17	1
18	1
19	1
20	1
21	1
22	1
23	1
24	1
25	1
26	1
27	1
28	1
29	1
30	1
31	1
32	1
33	1
34	1
35	1
36	1
37	1
38	1
39	1
40	1
41	1
42	1
43	1
44	1
45	1
46	1
47	1
48	1
49	1
50	1
51	1
52	1
53	1
54	1
55	1
56	1
57	1
58	1
59	1
60	1
61	1
62	1
63	1
64	1
65	1
66	1
67	1
68	1
69	1
70	1
71	1
72	1
73	1
74	1
75	1
76	1
77	1
78	1
79	1
80	1
81	1
82	1
83	1
84	1
85	1
86	1
87	1
88	1
89	1
90	1
91	1
92	1
93	1
94	1
95	1
96	1
97	1
98	1
99	1
100	1
101	1
102	1
103	1
104	1
105	1
106	1
107	1
108	1
109	1
110	1
111	1
112	1
113	1
114	1
115	1
116	1
117	1
118	1
119	1
120	1
121	1
122	1
123	1
124	1
125	1
126	1
127	1
128	1
129	1
130	1
131	1
132	1
133	1
134	1
135	1
136	1
137	1
138	1
139	1
140	1
141	1
142	1
143	1
144	1
145	1
146	1
147	1
148	1
149	1
150	1
151	1
152	1
153	1
154	1
155	1
156	1
157	1
158	1
159	1
160	1
161	1
162	1
163	1
164	1
165	1
166	1
167	1
168	1
169	1
170	1
171	1
172	1
173	1
174	1
175	1
176	1
177	1
178	1
179	1
180	1
181	1
182	1
183	1
184	1
185	1
186	1
187	1
188	1
189	1
190	1
191	1
192	1
193	1
194	1
195	1
196	1
197	1
198	1
199	1
200	1
201	1
202	1
203	1
204	1
205	1
206	1
207	1
208	1
209	1
210	1
211	1
212	1
213	1
214	1
215	1
216	1
217	1
218	1
219	1
220	1
221	1
222	1
223	1
224	1
225	1
226	1
227	1
228	1
229	1
230	1
231	1
232	1
233	1
234	1
235	1
236	1
237	1
DEPOT_SECTION
1
-1
EOF
